============================[ Problem Statistics ]=============================|                                                                             ||  Number of variables:          4242                                         ||  Number of clauses:           10066                                         ||  Parse time:                   0.46 s                                       ||                                                                             |============================[ Search Statistics ]==============================| Conflicts |          ORIGINAL         |          LEARNT          | Progress ||           |    Vars  Clauses Literals |    Limit  Clauses Lit/Cl |          |===============================================================================|       100 |    1591     6271   724562 |     2299      100     53 | 62.501 % ||       250 |    1591     6271   724562 |     2529      250     75 | 62.495 % |===============================================================================restarts              : 3conflicts             : 257            (374 /sec)decisions             : 521            (0.00 % random) (757 /sec)propagations          : 11766          (17102 /sec)conflict literals     : 19547          (94.87 % deleted)CPU time              : 0.688 sSATISFIABLE